peakDumbCharging = 25900; 
Machine = anon_enum(16); 
machineSpeed = [3700,3700,3700,3700,3700,3700,3700,3700,3700,3700,3700,3700,3700,3700,3700,3700]; 
machineLoad = [3700,3700,3700,3700,3700,3700,3700,3700,3700,3700,3700,3700,3700,3700,3700,3700]; 
Car = anon_enum(41); 
demandCar = [12080,13560,6000,7040,9920,16480,9040,9560,4800,2280,10200,19760,1960,4680,6120,18600,3520,560,720,11320,8160,4920,15160,9280,3320,6600,11120,14400,5160,7200,5960,15320,7840,360,3280,10600,9600,7840,33800,32521,15920]; 
arrivalCar = [76,73,71,71,71,67,66,66,63,63,62,60,60,59,57,56,56,56,55,53,53,52,51,50,50,49,49,49,47,47,46,46,44,41,40,40,34,33,30,29,29]; 
departureCar = [81,79,76,76,75,76,73,71,66,64,66,69,61,62,62,64,59,57,56,60,58,56,57,58,52,52,55,54,51,52,51,53,51,48,44,46,40,50,50,57,35]; 
